p cnf 50 10
x 1 -3 9 10 11 -12 13 15 17 -18 19 -20 -26 -28 -29 -30 -33 34 37 -39 40 41 44 -46 -47 -49 -50 0
x -1 -2 -3 -6 7 -8 -10 15 16 -18 -19 -22 -24 25 28 29 30 36 38 39 -42 -45 49 0
x -1 -2 3 -4 -5 7 -9 -10 13 -15 -16 19 20 21 -25 27 28 30 -32 34 -35 -36 38 -39 40 41 -45 -46 47 50 0
x -1 -3 -6 8 -12 -14 16 17 18 21 -23 24 -26 -29 30 31 32 33 -34 -35 36 39 40 -43 44 -47 -50 0
x 1 -2 -3 -4 5 6 8 -10 -16 -17 18 -20 -21 23 25 27 -30 -31 32 33 -38 -40 45 -47 48 50 0
x 3 -6 8 9 -10 -17 -19 -21 22 28 30 31 32 -35 -39 43 46 49 0
x 1 -3 6 7 8 11 -12 -13 -14 -15 -17 18 21 -23 25 -26 -27 30 -32 34 36 -37 -38 -42 43 45 46 0
x -3 -4 -5 9 10 -14 18 -19 21 -23 24 -25 27 28 30 -32 33 -34 -36 -37 41 -49 0
x -2 4 5 6 10 -12 14 16 20 21 -22 -23 24 25 -29 -30 32 45 -46 -47 0
x 2 -6 -7 10 11 -14 -15 -16 17 -21 -22 -26 -29 -30 -32 34 -35 37 39 -40 41 44 -49 0
g -15